c Reduced graph for 1-FullIns_5 generated by Cyril Grelier
p edge 282 3247
e 1 2
e 1 3
e 1 40
e 1 41
e 1 42
e 1 92
e 1 93
e 1 94
e 1 102
e 1 103
e 1 104
e 1 132
e 1 133
e 1 134
e 1 144
e 1 145
e 1 146
e 1 155
e 1 156
e 1 157
e 1 166
e 1 167
e 1 168
e 1 180
e 1 181
e 1 182
e 1 183
e 1 195
e 1 196
e 1 197
e 1 198
e 1 205
e 1 206
e 1 207
e 1 208
e 1 209
e 1 210
e 1 211
e 1 212
e 1 213
e 1 214
e 1 221
e 1 222
e 1 223
e 1 224
e 1 225
e 1 226
e 1 227
e 1 232
e 1 233
e 1 234
e 1 235
e 1 236
e 1 237
e 1 238
e 1 239
e 1 240
e 1 245
e 1 246
e 1 247
e 1 248
e 1 249
e 1 250
e 1 251
e 1 252
e 1 253
e 1 254
e 1 255
e 1 256
e 1 257
e 1 258
e 1 259
e 1 260
e 1 261
e 1 262
e 1 263
e 1 264
e 1 265
e 1 266
e 1 267
e 1 268
e 1 269
e 1 270
e 1 271
e 1 272
e 1 273
e 1 274
e 1 275
e 1 276
e 1 277
e 1 278
e 1 279
e 1 280
e 1 281
e 1 282
e 2 3
e 2 4
e 2 5
e 2 6
e 2 10
e 2 11
e 2 12
e 2 16
e 2 17
e 2 18
e 2 22
e 2 23
e 2 24
e 2 28
e 2 29
e 2 30
e 2 34
e 2 35
e 2 36
e 2 43
e 2 44
e 2 45
e 2 49
e 2 50
e 2 51
e 2 52
e 2 57
e 2 58
e 2 59
e 2 60
e 2 65
e 2 66
e 2 67
e 2 68
e 2 69
e 2 70
e 2 71
e 2 72
e 2 73
e 2 74
e 2 85
e 2 86
e 2 87
e 2 88
e 2 89
e 2 90
e 2 91
e 2 105
e 2 106
e 2 107
e 2 108
e 2 109
e 2 110
e 2 111
e 2 112
e 2 113
e 2 123
e 2 124
e 2 125
e 2 126
e 2 127
e 2 128
e 2 129
e 2 130
e 2 131
e 2 147
e 2 148
e 2 149
e 2 150
e 2 151
e 2 152
e 2 153
e 2 154
e 2 169
e 2 170
e 2 171
e 2 172
e 2 173
e 2 174
e 2 175
e 2 176
e 2 177
e 2 178
e 2 179
e 2 199
e 2 200
e 2 201
e 2 202
e 2 203
e 2 204
e 2 228
e 2 229
e 2 230
e 2 231
e 3 40
e 3 41
e 3 42
e 3 92
e 3 93
e 3 94
e 3 102
e 3 103
e 3 104
e 3 132
e 3 133
e 3 134
e 3 144
e 3 145
e 3 146
e 3 155
e 3 156
e 3 157
e 3 166
e 3 167
e 3 168
e 3 180
e 3 181
e 3 182
e 3 183
e 3 195
e 3 196
e 3 197
e 3 198
e 3 205
e 3 206
e 3 207
e 3 208
e 3 209
e 3 210
e 3 211
e 3 212
e 3 213
e 3 214
e 3 221
e 3 222
e 3 223
e 3 224
e 3 225
e 3 226
e 3 227
e 3 232
e 3 233
e 3 234
e 3 235
e 3 236
e 3 237
e 3 238
e 3 239
e 3 240
e 3 245
e 3 246
e 3 247
e 3 248
e 3 249
e 3 250
e 3 251
e 3 252
e 3 253
e 3 254
e 3 255
e 3 256
e 3 257
e 3 258
e 3 259
e 3 260
e 3 261
e 3 262
e 3 263
e 3 264
e 3 265
e 3 266
e 3 267
e 3 268
e 3 269
e 3 270
e 3 271
e 3 272
e 3 273
e 3 274
e 3 275
e 3 276
e 3 277
e 3 278
e 3 279
e 3 280
e 3 281
e 3 282
e 4 8
e 4 9
e 4 41
e 4 42
e 4 82
e 4 83
e 4 84
e 4 120
e 4 121
e 4 122
e 4 141
e 4 142
e 4 143
e 4 162
e 4 163
e 4 164
e 4 165
e 4 188
e 4 189
e 4 190
e 4 191
e 4 192
e 4 193
e 4 194
e 4 212
e 4 213
e 4 214
e 4 215
e 4 216
e 4 217
e 4 218
e 4 219
e 4 220
e 4 238
e 4 239
e 4 240
e 4 241
e 4 242
e 4 243
e 4 244
e 4 251
e 4 252
e 4 253
e 4 258
e 4 259
e 4 260
e 4 261
e 4 266
e 4 267
e 4 268
e 4 269
e 4 270
e 4 271
e 4 272
e 4 273
e 4 274
e 4 275
e 4 276
e 4 277
e 4 278
e 4 279
e 4 280
e 4 281
e 4 282
e 5 7
e 5 9
e 5 13
e 5 14
e 5 15
e 5 25
e 5 26
e 5 27
e 5 37
e 5 38
e 5 39
e 5 40
e 5 42
e 5 53
e 5 54
e 5 55
e 5 56
e 5 75
e 5 76
e 5 77
e 5 78
e 5 79
e 5 80
e 5 81
e 5 92
e 5 93
e 5 94
e 5 114
e 5 115
e 5 116
e 5 117
e 5 118
e 5 119
e 5 132
e 5 133
e 5 134
e 5 155
e 5 156
e 5 157
e 5 158
e 5 159
e 5 160
e 5 161
e 5 180
e 5 181
e 5 182
e 5 183
e 5 205
e 5 206
e 5 207
e 5 208
e 5 209
e 5 210
e 5 211
e 5 232
e 5 233
e 5 234
e 5 235
e 5 236
e 5 237
e 5 254
e 5 255
e 5 256
e 5 257
e 6 7
e 6 8
e 6 40
e 6 41
e 6 82
e 6 83
e 6 84
e 6 120
e 6 121
e 6 122
e 6 141
e 6 142
e 6 143
e 6 162
e 6 163
e 6 164
e 6 165
e 6 188
e 6 189
e 6 190
e 6 191
e 6 192
e 6 193
e 6 194
e 6 212
e 6 213
e 6 214
e 6 215
e 6 216
e 6 217
e 6 218
e 6 219
e 6 220
e 6 238
e 6 239
e 6 240
e 6 241
e 6 242
e 6 243
e 6 244
e 6 251
e 6 252
e 6 253
e 6 258
e 6 259
e 6 260
e 6 261
e 6 266
e 6 267
e 6 268
e 6 269
e 6 270
e 6 271
e 6 272
e 6 273
e 6 274
e 6 275
e 6 276
e 6 277
e 6 278
e 6 279
e 6 280
e 6 281
e 6 282
e 7 8
e 7 9
e 7 72
e 7 73
e 7 74
e 7 82
e 7 83
e 7 84
e 7 111
e 7 112
e 7 113
e 7 120
e 7 121
e 7 122
e 7 129
e 7 130
e 7 131
e 7 141
e 7 142
e 7 143
e 7 151
e 7 152
e 7 153
e 7 154
e 7 162
e 7 163
e 7 164
e 7 165
e 7 173
e 7 174
e 7 175
e 7 176
e 7 177
e 7 178
e 7 179
e 7 188
e 7 189
e 7 190
e 7 191
e 7 192
e 7 193
e 7 194
e 7 199
e 7 200
e 7 201
e 7 202
e 7 203
e 7 204
e 7 215
e 7 216
e 7 217
e 7 218
e 7 219
e 7 220
e 7 228
e 7 229
e 7 230
e 7 231
e 7 241
e 7 242
e 7 243
e 7 244
e 8 9
e 8 10
e 8 11
e 8 12
e 8 13
e 8 14
e 8 15
e 8 22
e 8 23
e 8 24
e 8 25
e 8 26
e 8 27
e 8 34
e 8 35
e 8 36
e 8 37
e 8 38
e 8 39
e 8 49
e 8 50
e 8 51
e 8 52
e 8 53
e 8 54
e 8 55
e 8 56
e 8 65
e 8 66
e 8 67
e 8 68
e 8 69
e 8 70
e 8 71
e 8 75
e 8 76
e 8 77
e 8 78
e 8 79
e 8 80
e 8 81
e 8 105
e 8 106
e 8 107
e 8 108
e 8 109
e 8 110
e 8 114
e 8 115
e 8 116
e 8 117
e 8 118
e 8 119
e 8 147
e 8 148
e 8 149
e 8 150
e 8 158
e 8 159
e 8 160
e 8 161
e 9 72
e 9 73
e 9 74
e 9 82
e 9 83
e 9 84
e 9 111
e 9 112
e 9 113
e 9 120
e 9 121
e 9 122
e 9 129
e 9 130
e 9 131
e 9 141
e 9 142
e 9 143
e 9 151
e 9 152
e 9 153
e 9 154
e 9 162
e 9 163
e 9 164
e 9 165
e 9 173
e 9 174
e 9 175
e 9 176
e 9 177
e 9 178
e 9 179
e 9 188
e 9 189
e 9 190
e 9 191
e 9 192
e 9 193
e 9 194
e 9 199
e 9 200
e 9 201
e 9 202
e 9 203
e 9 204
e 9 215
e 9 216
e 9 217
e 9 218
e 9 219
e 9 220
e 9 228
e 9 229
e 9 230
e 9 231
e 9 241
e 9 242
e 9 243
e 9 244
e 10 20
e 10 21
e 10 41
e 10 83
e 10 84
e 10 99
e 10 100
e 10 101
e 10 103
e 10 104
e 10 137
e 10 138
e 10 139
e 10 140
e 10 186
e 10 187
e 10 192
e 10 193
e 10 194
e 10 213
e 10 214
e 10 217
e 10 218
e 10 219
e 10 220
e 10 225
e 10 226
e 10 227
e 10 243
e 10 244
e 10 247
e 10 248
e 10 249
e 10 250
e 10 264
e 10 265
e 10 270
e 10 271
e 10 272
e 10 275
e 10 276
e 10 277
e 10 278
e 10 281
e 10 282
e 11 19
e 11 21
e 11 31
e 11 32
e 11 33
e 11 41
e 11 61
e 11 62
e 11 63
e 11 64
e 11 82
e 11 84
e 11 102
e 11 104
e 11 120
e 11 121
e 11 122
e 11 135
e 11 136
e 11 144
e 11 145
e 11 146
e 11 162
e 11 163
e 11 164
e 11 165
e 11 195
e 11 196
e 11 197
e 11 198
e 11 212
e 11 214
e 11 215
e 11 216
e 11 238
e 11 239
e 11 240
e 11 245
e 11 246
e 11 258
e 11 259
e 11 260
e 11 261
e 11 273
e 11 274
e 12 19
e 12 20
e 12 41
e 12 82
e 12 83
e 12 99
e 12 100
e 12 101
e 12 102
e 12 103
e 12 137
e 12 138
e 12 139
e 12 140
e 12 186
e 12 187
e 12 192
e 12 193
e 12 194
e 12 212
e 12 213
e 12 217
e 12 218
e 12 219
e 12 220
e 12 225
e 12 226
e 12 227
e 12 243
e 12 244
e 12 247
e 12 248
e 12 249
e 12 250
e 12 264
e 12 265
e 12 270
e 12 271
e 12 272
e 12 275
e 12 276
e 12 277
e 12 278
e 12 281
e 12 282
e 13 17
e 13 18
e 13 20
e 13 21
e 13 73
e 13 74
e 13 83
e 13 84
e 13 89
e 13 90
e 13 91
e 13 99
e 13 100
e 13 101
e 13 125
e 13 126
e 13 127
e 13 128
e 13 137
e 13 138
e 13 139
e 13 140
e 13 171
e 13 172
e 13 177
e 13 178
e 13 179
e 13 186
e 13 187
e 13 192
e 13 193
e 13 194
e 13 201
e 13 202
e 13 203
e 13 204
e 13 217
e 13 218
e 13 219
e 13 220
e 13 230
e 13 231
e 13 243
e 13 244
e 14 16
e 14 18
e 14 19
e 14 21
e 14 28
e 14 29
e 14 30
e 14 31
e 14 32
e 14 33
e 14 57
e 14 58
e 14 59
e 14 60
e 14 61
e 14 62
e 14 63
e 14 64
e 14 72
e 14 74
e 14 82
e 14 84
e 14 111
e 14 112
e 14 113
e 14 120
e 14 121
e 14 122
e 14 123
e 14 124
e 14 135
e 14 136
e 14 151
e 14 152
e 14 153
e 14 154
e 14 162
e 14 163
e 14 164
e 14 165
e 14 199
e 14 200
e 14 215
e 14 216
e 15 16
e 15 17
e 15 19
e 15 20
e 15 72
e 15 73
e 15 82
e 15 83
e 15 89
e 15 90
e 15 91
e 15 99
e 15 100
e 15 101
e 15 125
e 15 126
e 15 127
e 15 128
e 15 137
e 15 138
e 15 139
e 15 140
e 15 171
e 15 172
e 15 177
e 15 178
e 15 179
e 15 186
e 15 187
e 15 192
e 15 193
e 15 194
e 15 201
e 15 202
e 15 203
e 15 204
e 15 217
e 15 218
e 15 219
e 15 220
e 15 230
e 15 231
e 15 243
e 15 244
e 16 20
e 16 21
e 16 79
e 16 80
e 16 81
e 16 93
e 16 94
e 16 99
e 16 100
e 16 101
e 16 103
e 16 104
e 16 116
e 16 117
e 16 118
e 16 119
e 16 137
e 16 138
e 16 139
e 16 140
e 16 160
e 16 161
e 16 186
e 16 187
e 16 209
e 16 210
e 16 211
e 16 225
e 16 226
e 16 227
e 16 234
e 16 235
e 16 236
e 16 237
e 16 247
e 16 248
e 16 249
e 16 250
e 16 256
e 16 257
e 16 264
e 16 265
e 17 19
e 17 21
e 17 25
e 17 26
e 17 27
e 17 31
e 17 32
e 17 33
e 17 53
e 17 54
e 17 55
e 17 56
e 17 61
e 17 62
e 17 63
e 17 64
e 17 92
e 17 94
e 17 102
e 17 104
e 17 114
e 17 115
e 17 132
e 17 133
e 17 134
e 17 135
e 17 136
e 17 144
e 17 145
e 17 146
e 17 180
e 17 181
e 17 182
e 17 183
e 17 195
e 17 196
e 17 197
e 17 198
e 17 232
e 17 233
e 17 245
e 17 246
e 18 19
e 18 20
e 18 79
e 18 80
e 18 81
e 18 92
e 18 93
e 18 99
e 18 100
e 18 101
e 18 102
e 18 103
e 18 116
e 18 117
e 18 118
e 18 119
e 18 137
e 18 138
e 18 139
e 18 140
e 18 160
e 18 161
e 18 186
e 18 187
e 18 209
e 18 210
e 18 211
e 18 225
e 18 226
e 18 227
e 18 234
e 18 235
e 18 236
e 18 237
e 18 247
e 18 248
e 18 249
e 18 250
e 18 256
e 18 257
e 18 264
e 18 265
e 19 20
e 19 21
e 19 69
e 19 70
e 19 71
e 19 79
e 19 80
e 19 81
e 19 89
e 19 90
e 19 91
e 19 99
e 19 100
e 19 101
e 19 107
e 19 108
e 19 109
e 19 110
e 19 116
e 19 117
e 19 118
e 19 119
e 19 125
e 19 126
e 19 127
e 19 128
e 19 137
e 19 138
e 19 139
e 19 140
e 19 149
e 19 150
e 19 160
e 19 161
e 19 171
e 19 172
e 19 186
e 19 187
e 20 21
e 20 22
e 20 23
e 20 24
e 20 25
e 20 26
e 20 27
e 20 28
e 20 29
e 20 30
e 20 31
e 20 32
e 20 33
e 20 49
e 20 50
e 20 51
e 20 52
e 20 53
e 20 54
e 20 55
e 20 56
e 20 57
e 20 58
e 20 59
e 20 60
e 20 61
e 20 62
e 20 63
e 20 64
e 20 105
e 20 106
e 20 114
e 20 115
e 20 123
e 20 124
e 20 135
e 20 136
e 21 69
e 21 70
e 21 71
e 21 79
e 21 80
e 21 81
e 21 89
e 21 90
e 21 91
e 21 99
e 21 100
e 21 101
e 21 107
e 21 108
e 21 109
e 21 110
e 21 116
e 21 117
e 21 118
e 21 119
e 21 125
e 21 126
e 21 127
e 21 128
e 21 137
e 21 138
e 21 139
e 21 140
e 21 149
e 21 150
e 21 160
e 21 161
e 21 171
e 21 172
e 21 186
e 21 187
e 22 41
e 22 47
e 22 48
e 22 83
e 22 97
e 22 98
e 22 100
e 22 101
e 22 103
e 22 139
e 22 140
e 22 142
e 22 143
e 22 167
e 22 168
e 22 190
e 22 191
e 22 193
e 22 194
e 22 213
e 22 219
e 22 220
e 22 223
e 22 224
e 22 226
e 22 227
e 22 249
e 22 250
e 22 252
e 22 253
e 22 268
e 22 269
e 22 271
e 22 272
e 22 277
e 22 278
e 23 41
e 23 46
e 23 48
e 23 83
e 23 95
e 23 96
e 23 99
e 23 101
e 23 103
e 23 137
e 23 138
e 23 141
e 23 143
e 23 166
e 23 168
e 23 188
e 23 189
e 23 192
e 23 194
e 23 213
e 23 217
e 23 218
e 23 221
e 23 222
e 23 225
e 23 227
e 23 247
e 23 248
e 23 251
e 23 253
e 23 266
e 23 267
e 23 270
e 23 272
e 23 275
e 23 276
e 24 41
e 24 46
e 24 47
e 24 83
e 24 97
e 24 98
e 24 99
e 24 100
e 24 103
e 24 139
e 24 140
e 24 141
e 24 142
e 24 166
e 24 167
e 24 190
e 24 191
e 24 192
e 24 193
e 24 213
e 24 219
e 24 220
e 24 223
e 24 224
e 24 225
e 24 226
e 24 249
e 24 250
e 24 251
e 24 252
e 24 268
e 24 269
e 24 270
e 24 271
e 24 277
e 24 278
e 25 44
e 25 45
e 25 47
e 25 48
e 25 73
e 25 83
e 25 87
e 25 88
e 25 90
e 25 91
e 25 97
e 25 98
e 25 100
e 25 101
e 25 127
e 25 128
e 25 130
e 25 131
e 25 139
e 25 140
e 25 142
e 25 143
e 25 175
e 25 176
e 25 178
e 25 179
e 25 190
e 25 191
e 25 193
e 25 194
e 25 203
e 25 204
e 25 219
e 25 220
e 26 43
e 26 45
e 26 46
e 26 48
e 26 73
e 26 83
e 26 85
e 26 86
e 26 89
e 26 91
e 26 95
e 26 96
e 26 99
e 26 101
e 26 125
e 26 126
e 26 129
e 26 131
e 26 137
e 26 138
e 26 141
e 26 143
e 26 173
e 26 174
e 26 177
e 26 179
e 26 188
e 26 189
e 26 192
e 26 194
e 26 201
e 26 202
e 26 217
e 26 218
e 27 43
e 27 44
e 27 46
e 27 47
e 27 73
e 27 83
e 27 87
e 27 88
e 27 89
e 27 90
e 27 97
e 27 98
e 27 99
e 27 100
e 27 127
e 27 128
e 27 129
e 27 130
e 27 139
e 27 140
e 27 141
e 27 142
e 27 175
e 27 176
e 27 177
e 27 178
e 27 190
e 27 191
e 27 192
e 27 193
e 27 203
e 27 204
e 27 219
e 27 220
e 28 38
e 28 39
e 28 47
e 28 48
e 28 77
e 28 78
e 28 80
e 28 81
e 28 93
e 28 97
e 28 98
e 28 100
e 28 101
e 28 103
e 28 118
e 28 119
e 28 139
e 28 140
e 28 156
e 28 157
e 28 167
e 28 168
e 28 207
e 28 208
e 28 210
e 28 211
e 28 223
e 28 224
e 28 226
e 28 227
e 28 236
e 28 237
e 28 249
e 28 250
e 29 37
e 29 39
e 29 46
e 29 48
e 29 75
e 29 76
e 29 79
e 29 81
e 29 93
e 29 95
e 29 96
e 29 99
e 29 101
e 29 103
e 29 116
e 29 117
e 29 137
e 29 138
e 29 155
e 29 157
e 29 166
e 29 168
e 29 205
e 29 206
e 29 209
e 29 211
e 29 221
e 29 222
e 29 225
e 29 227
e 29 234
e 29 235
e 29 247
e 29 248
e 30 37
e 30 38
e 30 46
e 30 47
e 30 77
e 30 78
e 30 79
e 30 80
e 30 93
e 30 97
e 30 98
e 30 99
e 30 100
e 30 103
e 30 118
e 30 119
e 30 139
e 30 140
e 30 155
e 30 156
e 30 166
e 30 167
e 30 207
e 30 208
e 30 209
e 30 210
e 30 223
e 30 224
e 30 225
e 30 226
e 30 236
e 30 237
e 30 249
e 30 250
e 31 35
e 31 36
e 31 38
e 31 39
e 31 44
e 31 45
e 31 47
e 31 48
e 31 67
e 31 68
e 31 70
e 31 71
e 31 77
e 31 78
e 31 80
e 31 81
e 31 87
e 31 88
e 31 90
e 31 91
e 31 97
e 31 98
e 31 100
e 31 101
e 31 109
e 31 110
e 31 118
e 31 119
e 31 127
e 31 128
e 31 139
e 31 140
e 32 34
e 32 36
e 32 37
e 32 39
e 32 43
e 32 45
e 32 46
e 32 48
e 32 65
e 32 66
e 32 69
e 32 71
e 32 75
e 32 76
e 32 79
e 32 81
e 32 85
e 32 86
e 32 89
e 32 91
e 32 95
e 32 96
e 32 99
e 32 101
e 32 107
e 32 108
e 32 116
e 32 117
e 32 125
e 32 126
e 32 137
e 32 138
e 33 34
e 33 35
e 33 37
e 33 38
e 33 43
e 33 44
e 33 46
e 33 47
e 33 67
e 33 68
e 33 69
e 33 70
e 33 77
e 33 78
e 33 79
e 33 80
e 33 87
e 33 88
e 33 89
e 33 90
e 33 97
e 33 98
e 33 99
e 33 100
e 33 109
e 33 110
e 33 118
e 33 119
e 33 127
e 33 128
e 33 139
e 33 140
e 34 41
e 34 47
e 34 48
e 34 63
e 34 64
e 34 97
e 34 98
e 34 121
e 34 122
e 34 142
e 34 143
e 34 145
e 34 146
e 34 164
e 34 165
e 34 167
e 34 168
e 34 190
e 34 191
e 34 197
e 34 198
e 34 223
e 34 224
e 34 239
e 34 240
e 34 252
e 34 253
e 34 260
e 34 261
e 34 268
e 34 269
e 35 41
e 35 46
e 35 48
e 35 61
e 35 62
e 35 95
e 35 96
e 35 120
e 35 122
e 35 141
e 35 143
e 35 144
e 35 146
e 35 162
e 35 163
e 35 166
e 35 168
e 35 188
e 35 189
e 35 195
e 35 196
e 35 221
e 35 222
e 35 238
e 35 240
e 35 251
e 35 253
e 35 258
e 35 259
e 35 266
e 35 267
e 36 41
e 36 46
e 36 47
e 36 63
e 36 64
e 36 97
e 36 98
e 36 120
e 36 121
e 36 141
e 36 142
e 36 144
e 36 145
e 36 164
e 36 165
e 36 166
e 36 167
e 36 190
e 36 191
e 36 197
e 36 198
e 36 223
e 36 224
e 36 238
e 36 239
e 36 251
e 36 252
e 36 260
e 36 261
e 36 268
e 36 269
e 37 44
e 37 45
e 37 47
e 37 48
e 37 59
e 37 60
e 37 63
e 37 64
e 37 87
e 37 88
e 37 97
e 37 98
e 37 112
e 37 113
e 37 121
e 37 122
e 37 130
e 37 131
e 37 142
e 37 143
e 37 153
e 37 154
e 37 164
e 37 165
e 37 175
e 37 176
e 37 190
e 37 191
e 38 43
e 38 45
e 38 46
e 38 48
e 38 57
e 38 58
e 38 61
e 38 62
e 38 85
e 38 86
e 38 95
e 38 96
e 38 111
e 38 113
e 38 120
e 38 122
e 38 129
e 38 131
e 38 141
e 38 143
e 38 151
e 38 152
e 38 162
e 38 163
e 38 173
e 38 174
e 38 188
e 38 189
e 39 43
e 39 44
e 39 46
e 39 47
e 39 59
e 39 60
e 39 63
e 39 64
e 39 87
e 39 88
e 39 97
e 39 98
e 39 111
e 39 112
e 39 120
e 39 121
e 39 129
e 39 130
e 39 141
e 39 142
e 39 153
e 39 154
e 39 164
e 39 165
e 39 175
e 39 176
e 39 190
e 39 191
e 40 72
e 40 73
e 40 74
e 40 111
e 40 112
e 40 113
e 40 129
e 40 130
e 40 131
e 40 151
e 40 152
e 40 153
e 40 154
e 40 173
e 40 174
e 40 175
e 40 176
e 40 177
e 40 178
e 40 179
e 40 199
e 40 200
e 40 201
e 40 202
e 40 203
e 40 204
e 40 228
e 40 229
e 40 230
e 40 231
e 41 49
e 41 50
e 41 51
e 41 52
e 41 65
e 41 66
e 41 67
e 41 68
e 41 69
e 41 70
e 41 71
e 41 105
e 41 106
e 41 107
e 41 108
e 41 109
e 41 110
e 41 147
e 41 148
e 41 149
e 41 150
e 42 72
e 42 73
e 42 74
e 42 111
e 42 112
e 42 113
e 42 129
e 42 130
e 42 131
e 42 151
e 42 152
e 42 153
e 42 154
e 42 173
e 42 174
e 42 175
e 42 176
e 42 177
e 42 178
e 42 179
e 42 199
e 42 200
e 42 201
e 42 202
e 42 203
e 42 204
e 42 228
e 42 229
e 42 230
e 42 231
e 43 47
e 43 48
e 43 55
e 43 56
e 43 63
e 43 64
e 43 77
e 43 78
e 43 97
e 43 98
e 43 133
e 43 134
e 43 145
e 43 146
e 43 156
e 43 157
e 43 167
e 43 168
e 43 182
e 43 183
e 43 197
e 43 198
e 43 207
e 43 208
e 43 223
e 43 224
e 44 46
e 44 48
e 44 53
e 44 54
e 44 61
e 44 62
e 44 75
e 44 76
e 44 95
e 44 96
e 44 132
e 44 134
e 44 144
e 44 146
e 44 155
e 44 157
e 44 166
e 44 168
e 44 180
e 44 181
e 44 195
e 44 196
e 44 205
e 44 206
e 44 221
e 44 222
e 45 46
e 45 47
e 45 55
e 45 56
e 45 63
e 45 64
e 45 77
e 45 78
e 45 97
e 45 98
e 45 132
e 45 133
e 45 144
e 45 145
e 45 155
e 45 156
e 45 166
e 45 167
e 45 182
e 45 183
e 45 197
e 45 198
e 45 207
e 45 208
e 45 223
e 45 224
e 46 47
e 46 48
e 46 51
e 46 52
e 46 55
e 46 56
e 46 59
e 46 60
e 46 63
e 46 64
e 46 67
e 46 68
e 46 77
e 46 78
e 46 87
e 46 88
e 46 97
e 46 98
e 47 48
e 47 49
e 47 50
e 47 53
e 47 54
e 47 57
e 47 58
e 47 61
e 47 62
e 47 65
e 47 66
e 47 75
e 47 76
e 47 85
e 47 86
e 47 95
e 47 96
e 48 51
e 48 52
e 48 55
e 48 56
e 48 59
e 48 60
e 48 63
e 48 64
e 48 67
e 48 68
e 48 77
e 48 78
e 48 87
e 48 88
e 48 97
e 48 98
e 49 83
e 49 98
e 49 100
e 49 103
e 49 140
e 49 142
e 49 167
e 49 185
e 49 187
e 49 191
e 49 193
e 49 213
e 49 220
e 49 224
e 49 226
e 49 242
e 49 244
e 49 250
e 49 252
e 49 263
e 49 265
e 49 269
e 49 271
e 49 278
e 49 280
e 49 282
e 50 83
e 50 97
e 50 100
e 50 103
e 50 139
e 50 142
e 50 167
e 50 184
e 50 186
e 50 190
e 50 193
e 50 213
e 50 219
e 50 223
e 50 226
e 50 241
e 50 243
e 50 249
e 50 252
e 50 262
e 50 264
e 50 268
e 50 271
e 50 277
e 50 279
e 50 281
e 51 83
e 51 96
e 51 99
e 51 101
e 51 103
e 51 138
e 51 141
e 51 143
e 51 166
e 51 168
e 51 189
e 51 192
e 51 194
e 51 213
e 51 218
e 51 222
e 51 225
e 51 227
e 51 248
e 51 251
e 51 253
e 51 267
e 51 270
e 51 272
e 51 276
e 52 83
e 52 95
e 52 99
e 52 101
e 52 103
e 52 137
e 52 141
e 52 143
e 52 166
e 52 168
e 52 188
e 52 192
e 52 194
e 52 213
e 52 217
e 52 221
e 52 225
e 52 227
e 52 247
e 52 251
e 52 253
e 52 266
e 52 270
e 52 272
e 52 275
e 53 73
e 53 83
e 53 88
e 53 90
e 53 98
e 53 100
e 53 128
e 53 130
e 53 140
e 53 142
e 53 170
e 53 172
e 53 176
e 53 178
e 53 185
e 53 187
e 53 191
e 53 193
e 53 204
e 53 220
e 53 229
e 53 231
e 53 242
e 53 244
e 54 73
e 54 83
e 54 87
e 54 90
e 54 97
e 54 100
e 54 127
e 54 130
e 54 139
e 54 142
e 54 169
e 54 171
e 54 175
e 54 178
e 54 184
e 54 186
e 54 190
e 54 193
e 54 203
e 54 219
e 54 228
e 54 230
e 54 241
e 54 243
e 55 73
e 55 83
e 55 86
e 55 89
e 55 91
e 55 96
e 55 99
e 55 101
e 55 126
e 55 129
e 55 131
e 55 138
e 55 141
e 55 143
e 55 174
e 55 177
e 55 179
e 55 189
e 55 192
e 55 194
e 55 202
e 55 218
e 56 73
e 56 83
e 56 85
e 56 89
e 56 91
e 56 95
e 56 99
e 56 101
e 56 125
e 56 129
e 56 131
e 56 137
e 56 141
e 56 143
e 56 173
e 56 177
e 56 179
e 56 188
e 56 192
e 56 194
e 56 201
e 56 217
e 57 78
e 57 80
e 57 93
e 57 98
e 57 100
e 57 103
e 57 119
e 57 140
e 57 156
e 57 159
e 57 161
e 57 167
e 57 185
e 57 187
e 57 208
e 57 210
e 57 224
e 57 226
e 57 237
e 57 250
e 57 255
e 57 257
e 57 263
e 57 265
e 58 77
e 58 80
e 58 93
e 58 97
e 58 100
e 58 103
e 58 118
e 58 139
e 58 156
e 58 158
e 58 160
e 58 167
e 58 184
e 58 186
e 58 207
e 58 210
e 58 223
e 58 226
e 58 236
e 58 249
e 58 254
e 58 256
e 58 262
e 58 264
e 59 76
e 59 79
e 59 81
e 59 93
e 59 96
e 59 99
e 59 101
e 59 103
e 59 117
e 59 138
e 59 155
e 59 157
e 59 166
e 59 168
e 59 206
e 59 209
e 59 211
e 59 222
e 59 225
e 59 227
e 59 235
e 59 248
e 60 75
e 60 79
e 60 81
e 60 93
e 60 95
e 60 99
e 60 101
e 60 103
e 60 116
e 60 137
e 60 155
e 60 157
e 60 166
e 60 168
e 60 205
e 60 209
e 60 211
e 60 221
e 60 225
e 60 227
e 60 234
e 60 247
e 61 68
e 61 70
e 61 78
e 61 80
e 61 88
e 61 90
e 61 98
e 61 100
e 61 110
e 61 119
e 61 128
e 61 140
e 61 148
e 61 150
e 61 159
e 61 161
e 61 170
e 61 172
e 61 185
e 61 187
e 62 67
e 62 70
e 62 77
e 62 80
e 62 87
e 62 90
e 62 97
e 62 100
e 62 109
e 62 118
e 62 127
e 62 139
e 62 147
e 62 149
e 62 158
e 62 160
e 62 169
e 62 171
e 62 184
e 62 186
e 63 66
e 63 69
e 63 71
e 63 76
e 63 79
e 63 81
e 63 86
e 63 89
e 63 91
e 63 96
e 63 99
e 63 101
e 63 108
e 63 117
e 63 126
e 63 138
e 64 65
e 64 69
e 64 71
e 64 75
e 64 79
e 64 81
e 64 85
e 64 89
e 64 91
e 64 95
e 64 99
e 64 101
e 64 107
e 64 116
e 64 125
e 64 137
e 65 98
e 65 121
e 65 136
e 65 142
e 65 145
e 65 165
e 65 167
e 65 185
e 65 191
e 65 198
e 65 216
e 65 224
e 65 239
e 65 242
e 65 246
e 65 252
e 65 261
e 65 263
e 65 269
e 65 274
e 65 280
e 66 97
e 66 121
e 66 135
e 66 142
e 66 145
e 66 164
e 66 167
e 66 184
e 66 190
e 66 197
e 66 215
e 66 223
e 66 239
e 66 241
e 66 245
e 66 252
e 66 260
e 66 262
e 66 268
e 66 273
e 66 279
e 67 96
e 67 120
e 67 122
e 67 141
e 67 143
e 67 144
e 67 146
e 67 163
e 67 166
e 67 168
e 67 189
e 67 196
e 67 222
e 67 238
e 67 240
e 67 251
e 67 253
e 67 259
e 67 267
e 68 95
e 68 120
e 68 122
e 68 141
e 68 143
e 68 144
e 68 146
e 68 162
e 68 166
e 68 168
e 68 188
e 68 195
e 68 221
e 68 238
e 68 240
e 68 251
e 68 253
e 68 258
e 68 266
e 69 82
e 69 84
e 69 102
e 69 104
e 69 121
e 69 122
e 69 145
e 69 146
e 69 164
e 69 165
e 69 197
e 69 198
e 69 212
e 69 214
e 69 239
e 69 240
e 69 260
e 69 261
e 70 82
e 70 84
e 70 102
e 70 104
e 70 120
e 70 122
e 70 144
e 70 146
e 70 162
e 70 163
e 70 195
e 70 196
e 70 212
e 70 214
e 70 238
e 70 240
e 70 258
e 70 259
e 71 82
e 71 84
e 71 102
e 71 104
e 71 120
e 71 121
e 71 144
e 71 145
e 71 164
e 71 165
e 71 197
e 71 198
e 71 212
e 71 214
e 71 238
e 71 239
e 71 260
e 71 261
e 72 79
e 72 80
e 72 81
e 72 93
e 72 94
e 72 116
e 72 117
e 72 118
e 72 119
e 72 160
e 72 161
e 72 209
e 72 210
e 72 211
e 72 234
e 72 235
e 72 236
e 72 237
e 72 256
e 72 257
e 73 92
e 73 94
e 73 114
e 73 115
e 73 132
e 73 133
e 73 134
e 73 180
e 73 181
e 73 182
e 73 183
e 73 232
e 73 233
e 74 79
e 74 80
e 74 81
e 74 92
e 74 93
e 74 116
e 74 117
e 74 118
e 74 119
e 74 160
e 74 161
e 74 209
e 74 210
e 74 211
e 74 234
e 74 235
e 74 236
e 74 237
e 74 256
e 74 257
e 75 88
e 75 98
e 75 112
e 75 121
e 75 124
e 75 130
e 75 136
e 75 142
e 75 154
e 75 165
e 75 170
e 75 176
e 75 185
e 75 191
e 75 200
e 75 216
e 75 229
e 75 242
e 76 87
e 76 97
e 76 112
e 76 121
e 76 123
e 76 130
e 76 135
e 76 142
e 76 153
e 76 164
e 76 169
e 76 175
e 76 184
e 76 190
e 76 199
e 76 215
e 76 228
e 76 241
e 77 86
e 77 96
e 77 111
e 77 113
e 77 120
e 77 122
e 77 129
e 77 131
e 77 141
e 77 143
e 77 152
e 77 163
e 77 174
e 77 189
e 78 85
e 78 95
e 78 111
e 78 113
e 78 120
e 78 122
e 78 129
e 78 131
e 78 141
e 78 143
e 78 151
e 78 162
e 78 173
e 78 188
e 79 82
e 79 84
e 79 112
e 79 113
e 79 121
e 79 122
e 79 153
e 79 154
e 79 164
e 79 165
e 80 82
e 80 84
e 80 111
e 80 113
e 80 120
e 80 122
e 80 151
e 80 152
e 80 162
e 80 163
e 81 82
e 81 84
e 81 111
e 81 112
e 81 120
e 81 121
e 81 153
e 81 154
e 81 164
e 81 165
e 82 107
e 82 108
e 82 109
e 82 110
e 82 116
e 82 117
e 82 118
e 82 119
e 82 149
e 82 150
e 82 160
e 82 161
e 83 105
e 83 106
e 83 114
e 83 115
e 84 107
e 84 108
e 84 109
e 84 110
e 84 116
e 84 117
e 84 118
e 84 119
e 84 149
e 84 150
e 84 160
e 84 161
e 85 98
e 85 115
e 85 133
e 85 136
e 85 145
e 85 156
e 85 159
e 85 167
e 85 183
e 85 185
e 85 198
e 85 208
e 85 224
e 85 233
e 85 246
e 85 255
e 85 263
e 86 97
e 86 114
e 86 133
e 86 135
e 86 145
e 86 156
e 86 158
e 86 167
e 86 182
e 86 184
e 86 197
e 86 207
e 86 223
e 86 232
e 86 245
e 86 254
e 86 262
e 87 96
e 87 132
e 87 134
e 87 144
e 87 146
e 87 155
e 87 157
e 87 166
e 87 168
e 87 181
e 87 196
e 87 206
e 87 222
e 88 95
e 88 132
e 88 134
e 88 144
e 88 146
e 88 155
e 88 157
e 88 166
e 88 168
e 88 180
e 88 195
e 88 205
e 88 221
e 89 92
e 89 94
e 89 102
e 89 104
e 89 133
e 89 134
e 89 145
e 89 146
e 89 182
e 89 183
e 89 197
e 89 198
e 90 92
e 90 94
e 90 102
e 90 104
e 90 132
e 90 134
e 90 144
e 90 146
e 90 180
e 90 181
e 90 195
e 90 196
e 91 92
e 91 94
e 91 102
e 91 104
e 91 132
e 91 133
e 91 144
e 91 145
e 91 182
e 91 183
e 91 197
e 91 198
e 92 125
e 92 126
e 92 127
e 92 128
e 92 171
e 92 172
e 92 177
e 92 178
e 92 179
e 92 201
e 92 202
e 92 203
e 92 204
e 92 230
e 92 231
e 93 111
e 93 112
e 93 113
e 93 123
e 93 124
e 93 151
e 93 152
e 93 153
e 93 154
e 93 199
e 93 200
e 94 125
e 94 126
e 94 127
e 94 128
e 94 171
e 94 172
e 94 177
e 94 178
e 94 179
e 94 201
e 94 202
e 94 203
e 94 204
e 94 230
e 94 231
e 95 98
e 95 106
e 95 115
e 95 124
e 95 136
e 95 148
e 95 159
e 95 170
e 95 185
e 96 97
e 96 105
e 96 114
e 96 123
e 96 135
e 96 147
e 96 158
e 96 169
e 96 184
e 102 107
e 102 108
e 102 109
e 102 110
e 102 125
e 102 126
e 102 127
e 102 128
e 102 149
e 102 150
e 102 171
e 102 172
e 103 105
e 103 106
e 103 123
e 103 124
e 104 107
e 104 108
e 104 109
e 104 110
e 104 125
e 104 126
e 104 127
e 104 128
e 104 149
e 104 150
e 104 171
e 104 172
e 105 138
e 105 185
e 105 187
e 105 189
e 105 213
e 105 218
e 105 222
e 105 242
e 105 244
e 105 248
e 105 263
e 105 265
e 105 267
e 105 276
e 105 280
e 105 282
e 106 137
e 106 184
e 106 186
e 106 188
e 106 213
e 106 217
e 106 221
e 106 241
e 106 243
e 106 247
e 106 262
e 106 264
e 106 266
e 106 275
e 106 279
e 106 281
e 107 121
e 107 136
e 107 145
e 107 165
e 107 198
e 107 212
e 107 214
e 107 216
e 107 239
e 107 246
e 107 261
e 107 274
e 108 121
e 108 135
e 108 145
e 108 164
e 108 197
e 108 212
e 108 214
e 108 215
e 108 239
e 108 245
e 108 260
e 108 273
e 109 120
e 109 122
e 109 144
e 109 146
e 109 163
e 109 196
e 109 212
e 109 214
e 109 238
e 109 240
e 109 259
e 110 120
e 110 122
e 110 144
e 110 146
e 110 162
e 110 195
e 110 212
e 110 214
e 110 238
e 110 240
e 110 258
e 111 118
e 111 119
e 111 156
e 111 157
e 111 207
e 111 208
e 111 210
e 111 211
e 111 236
e 111 237
e 112 116
e 112 117
e 112 155
e 112 157
e 112 205
e 112 206
e 112 209
e 112 211
e 112 234
e 112 235
e 113 118
e 113 119
e 113 155
e 113 156
e 113 207
e 113 208
e 113 209
e 113 210
e 113 236
e 113 237
e 114 126
e 114 138
e 114 170
e 114 172
e 114 174
e 114 185
e 114 187
e 114 189
e 114 202
e 114 218
e 114 229
e 114 231
e 114 242
e 114 244
e 115 125
e 115 137
e 115 169
e 115 171
e 115 173
e 115 184
e 115 186
e 115 188
e 115 201
e 115 217
e 115 228
e 115 230
e 115 241
e 115 243
e 116 121
e 116 124
e 116 136
e 116 154
e 116 165
e 116 200
e 116 216
e 117 121
e 117 123
e 117 135
e 117 153
e 117 164
e 117 199
e 117 215
e 118 120
e 118 122
e 118 152
e 118 163
e 119 120
e 119 122
e 119 151
e 119 162
e 123 138
e 123 159
e 123 161
e 123 185
e 123 187
e 123 206
e 123 222
e 123 235
e 123 248
e 123 255
e 123 257
e 123 263
e 123 265
e 124 137
e 124 158
e 124 160
e 124 184
e 124 186
e 124 205
e 124 221
e 124 234
e 124 247
e 124 254
e 124 256
e 124 262
e 124 264
e 125 133
e 125 136
e 125 145
e 125 183
e 125 198
e 125 233
e 125 246
e 126 133
e 126 135
e 126 145
e 126 182
e 126 197
e 126 232
e 126 245
e 127 132
e 127 134
e 127 144
e 127 146
e 127 181
e 127 196
e 128 132
e 128 134
e 128 144
e 128 146
e 128 180
e 128 195
e 129 133
e 129 134
e 129 156
e 129 157
e 129 182
e 129 183
e 129 207
e 129 208
e 130 132
e 130 134
e 130 155
e 130 157
e 130 180
e 130 181
e 130 205
e 130 206
e 131 132
e 131 133
e 131 155
e 131 156
e 131 182
e 131 183
e 131 207
e 131 208
e 132 175
e 132 176
e 132 178
e 132 179
e 132 203
e 132 204
e 133 173
e 133 174
e 133 177
e 133 179
e 133 201
e 133 202
e 134 175
e 134 176
e 134 177
e 134 178
e 134 203
e 134 204
e 135 138
e 135 148
e 135 150
e 135 159
e 135 161
e 135 170
e 135 172
e 135 185
e 135 187
e 136 137
e 136 147
e 136 149
e 136 158
e 136 160
e 136 169
e 136 171
e 136 184
e 136 186
e 147 163
e 147 185
e 147 189
e 147 196
e 147 216
e 147 222
e 147 242
e 147 246
e 147 259
e 147 263
e 147 267
e 147 274
e 147 280
e 148 162
e 148 184
e 148 188
e 148 195
e 148 215
e 148 221
e 148 241
e 148 245
e 148 258
e 148 262
e 148 266
e 148 273
e 148 279
e 149 163
e 149 196
e 149 212
e 149 214
e 149 216
e 149 246
e 149 259
e 149 274
e 150 162
e 150 195
e 150 212
e 150 214
e 150 215
e 150 245
e 150 258
e 150 273
e 151 156
e 151 159
e 151 161
e 151 208
e 151 210
e 151 237
e 151 255
e 151 257
e 152 156
e 152 158
e 152 160
e 152 207
e 152 210
e 152 236
e 152 254
e 152 256
e 153 155
e 153 157
e 153 206
e 153 209
e 153 211
e 153 235
e 154 155
e 154 157
e 154 205
e 154 209
e 154 211
e 154 234
e 155 175
e 155 176
e 156 173
e 156 174
e 157 175
e 157 176
e 158 163
e 158 170
e 158 174
e 158 185
e 158 189
e 158 200
e 158 216
e 158 229
e 158 242
e 159 162
e 159 169
e 159 173
e 159 184
e 159 188
e 159 199
e 159 215
e 159 228
e 159 241
e 160 163
e 160 200
e 160 216
e 161 162
e 161 199
e 161 215
e 169 181
e 169 185
e 169 196
e 169 206
e 169 222
e 169 233
e 169 246
e 169 255
e 169 263
e 170 180
e 170 184
e 170 195
e 170 205
e 170 221
e 170 232
e 170 245
e 170 254
e 170 262
e 171 181
e 171 196
e 171 233
e 171 246
e 172 180
e 172 195
e 172 232
e 172 245
e 173 183
e 173 208
e 173 233
e 173 255
e 174 182
e 174 207
e 174 232
e 174 254
e 175 181
e 175 206
e 176 180
e 176 205
e 177 182
e 177 183
e 178 180
e 178 181
e 179 182
e 179 183
e 180 204
e 180 229
e 180 231
e 181 203
e 181 228
e 181 230
e 182 202
e 183 201
e 184 185
e 199 206
e 199 235
e 199 255
e 199 257
e 200 205
e 200 234
e 200 254
e 200 256
e 201 233
e 202 232
e 205 229
e 206 228
e 228 233
e 228 255
e 229 232
e 229 254
e 230 233
e 231 232
